(set-logic QF_UF)
(declare-fun A0 () Bool)
(declare-fun A2 () Bool)
(declare-fun A3 () Bool)
(declare-fun A4 () Bool)
(declare-fun A6 () Bool)
(declare-fun A7 () Bool)
(declare-fun A8 () Bool)
(declare-fun A9 () Bool)
(declare-fun A11 () Bool)
(declare-fun A12 () Bool)
(declare-fun A13 () Bool)
(declare-fun A14 () Bool)
(declare-fun A15 () Bool)
(declare-fun A16 () Bool)
(declare-fun A17 () Bool)
(declare-fun A18 () Bool)
(declare-fun A19 () Bool)
(declare-fun A20 () Bool)
(declare-fun A21 () Bool)
(declare-fun A22 () Bool)
(declare-fun A23 () Bool)
(declare-fun A24 () Bool)
(declare-fun A25 () Bool)
(declare-fun A26 () Bool)
(declare-fun A27 () Bool)
(declare-fun A28 () Bool)
(declare-fun A29 () Bool)
(assert (let ((.def_0 (not A29))) (let ((.def_1 (= A8 .def_0))) (let ((.def_2 (not A16))) (let ((.def_3 (or A27 .def_2))) (let ((.def_4 (not .def_3))) (let ((.def_5 (and .def_4 .def_1))) (let ((.def_6 (and A29 A25))) (let ((.def_7 (not .def_6))) (let ((.def_8 (not A20))) (let ((.def_9 (and .def_8 A22))) (let ((.def_10 (or .def_9 .def_7))) (let ((.def_11 (not .def_10))) (let ((.def_12 (or .def_11 .def_5))) (let ((.def_13 (not .def_12))) (let ((.def_14 (not A12))) (let ((.def_15 (or A0 .def_14))) (let ((.def_16 (not A17))) (let ((.def_17 (or A26 .def_16))) (let ((.def_18 (and .def_17 .def_15))) (let ((.def_19 (not A4))) (let ((.def_20 (or A28 .def_19))) (let ((.def_21 (not .def_20))) (let ((.def_22 (not A22))) (let ((.def_23 (or .def_22 A13))) (let ((.def_24 (not .def_23))) (let ((.def_25 (and .def_24 .def_21))) (let ((.def_26 (not .def_25))) (let ((.def_27 (and .def_26 .def_18))) (let ((.def_28 (not .def_27))) (let ((.def_29 (or .def_28 .def_13))) (let ((.def_30 (not A15))) (let ((.def_31 (= .def_30 A2))) (let ((.def_32 (not A0))) (let ((.def_33 (not A27))) (let ((.def_34 (or .def_33 .def_32))) (let ((.def_35 (not .def_34))) (let ((.def_36 (or .def_35 .def_31))) (let ((.def_37 (not .def_36))) (let ((.def_38 (not A21))) (let ((.def_39 (= .def_38 A25))) (let ((.def_40 (not .def_39))) (let ((.def_41 (and A13 .def_38))) (let ((.def_42 (or .def_41 .def_40))) (let ((.def_43 (not .def_42))) (let ((.def_44 (or .def_43 .def_37))) (let ((.def_45 (not .def_44))) (let ((.def_46 (or A26 A24))) (let ((.def_47 (not .def_46))) (let ((.def_48 (not A23))) (let ((.def_49 (and .def_8 .def_48))) (let ((.def_50 (= .def_49 .def_47))) (let ((.def_51 (not .def_50))) (let ((.def_52 (not A19))) (let ((.def_53 (= .def_52 A0))) (let ((.def_54 (not A25))) (let ((.def_55 (and .def_54 A14))) (let ((.def_56 (= .def_55 .def_53))) (let ((.def_57 (not .def_56))) (let ((.def_58 (and .def_57 .def_51))) (let ((.def_59 (not .def_58))) (let ((.def_60 (or .def_59 .def_45))) (let ((.def_61 (not .def_60))) (let ((.def_62 (and .def_61 .def_29))) (let ((.def_63 (not .def_62))) (let ((.def_64 (or A14 .def_8))) (let ((.def_65 (not .def_64))) (let ((.def_66 (= A11 A11))) (let ((.def_67 (not .def_66))) (let ((.def_68 (and .def_67 .def_65))) (let ((.def_69 (not .def_68))) (let ((.def_70 (= A6 A13))) (let ((.def_71 (not .def_70))) (let ((.def_72 (not A7))) (let ((.def_73 (and .def_72 A23))) (let ((.def_74 (not .def_73))) (let ((.def_75 (or .def_74 .def_71))) (let ((.def_76 (and .def_75 .def_69))) (let ((.def_77 (or .def_52 A3))) (let ((.def_78 (not .def_77))) (let ((.def_79 (= A13 A2))) (let ((.def_80 (or .def_79 .def_78))) (let ((.def_81 (and .def_2 A0))) (let ((.def_82 (not .def_81))) (let ((.def_83 (or .def_14 A4))) (let ((.def_84 (not .def_83))) (let ((.def_85 (or .def_84 .def_82))) (let ((.def_86 (not .def_85))) (let ((.def_87 (or .def_86 .def_80))) (let ((.def_88 (= .def_87 .def_76))) (let ((.def_89 (and .def_2 A11))) (let ((.def_90 (not A13))) (let ((.def_91 (and .def_90 A0))) (let ((.def_92 (not .def_91))) (let ((.def_93 (or .def_92 .def_89))) (let ((.def_94 (not .def_93))) (let ((.def_95 (and A11 .def_30))) (let ((.def_96 (not .def_95))) (let ((.def_97 (and A9 A26))) (let ((.def_98 (not .def_97))) (let ((.def_99 (or .def_98 .def_96))) (let ((.def_100 (not .def_99))) (let ((.def_101 (and .def_100 .def_94))) (let ((.def_102 (not A18))) (let ((.def_103 (not A6))) (let ((.def_104 (or .def_103 .def_102))) (let ((.def_105 (not .def_104))) (let ((.def_106 (or .def_14 A13))) (let ((.def_107 (not .def_106))) (let ((.def_108 (and .def_107 .def_105))) (let ((.def_109 (or .def_0 .def_103))) (let ((.def_110 (= .def_19 A28))) (let ((.def_111 (or .def_110 .def_109))) (let ((.def_112 (and .def_111 .def_108))) (let ((.def_113 (or .def_112 .def_101))) (let ((.def_114 (= .def_113 .def_88))) (let ((.def_115 (or .def_114 .def_63))) (let ((.def_116 (not .def_115))) .def_116))))))))))))))))))))))))))))))))))))))))))))))))))))))))))))))))))))))))))))))))))))))))))))))))))))))))))))))))))))))
(check-sat)
